Temps avant resolution glpk : 30.173000
Writing problem data to `Does_androids_dream_of_electric_sheep.lp'...
185861 lines were written
GLPK Simplex Optimizer, v4.45
19 rows, 42299 columns, 240947 non-zeros
      0: obj =   0.000000000e+00  infeas =  1.900e+01 (19)
*    39: obj =   4.600073333e+03  infeas =  0.000e+00 (0)
*    93: obj =   3.423000000e+03  infeas =  2.140e-16 (0)
OPTIMAL SOLUTION FOUND
GLPK Integer Optimizer, v4.45
19 rows, 42299 columns, 240947 non-zeros
42299 integer variables, all of which are binary
Integer optimization begins...
+    93: mip =     not found yet >=              -inf        (1; 0)
+   124: mip =     not found yet >=   3.427000000e+03        (6; 0)
+   138: mip =     not found yet >=   3.427000000e+03        (13; 0)
+   151: mip =     not found yet >=   3.427000000e+03        (19; 0)
+   160: >>>>>   3.838000000e+03 >=   3.427000000e+03  10.7% (22; 0)
+   182: mip =   3.838000000e+03 >=   3.431000000e+03  10.6% (19; 11)
+   213: mip =   3.838000000e+03 >=   3.431000000e+03  10.6% (23; 11)
+   229: mip =   3.838000000e+03 >=   3.431000000e+03  10.6% (27; 12)
+   290: mip =   3.838000000e+03 >=   3.438000000e+03  10.4% (32; 12)
+   312: mip =   3.838000000e+03 >=   3.438000000e+03  10.4% (37; 12)
+   353: mip =   3.838000000e+03 >=   3.444000000e+03  10.3% (38; 14)
+   380: mip =   3.838000000e+03 >=   3.444000000e+03  10.3% (41; 15)
Time used: 60.6 secs.  Memory used: 23.4 Mb.
+   410: mip =   3.838000000e+03 >=   3.444000000e+03  10.3% (45; 15)
+   446: mip =   3.838000000e+03 >=   3.444000000e+03  10.3% (49; 15)
+   461: mip =   3.838000000e+03 >=   3.444000000e+03  10.3% (53; 15)
+   505: mip =   3.838000000e+03 >=   3.444000000e+03  10.3% (57; 15)
+   523: mip =   3.838000000e+03 >=   3.444000000e+03  10.3% (62; 15)
+   535: mip =   3.838000000e+03 >=   3.444000000e+03  10.3% (66; 15)
+   552: mip =   3.838000000e+03 >=   3.444000000e+03  10.3% (69; 15)
+   557: >>>>>   3.819000000e+03 >=   3.444000000e+03   9.8% (70; 15)
+   612: mip =   3.819000000e+03 >=   3.451000000e+03   9.6% (65; 30)
+   627: mip =   3.819000000e+03 >=   3.451000000e+03   9.6% (70; 30)
+   642: mip =   3.819000000e+03 >=   3.451000000e+03   9.6% (77; 30)
+   645: >>>>>   3.766000000e+03 >=   3.451000000e+03   8.4% (77; 30)
+   667: mip =   3.766000000e+03 >=   3.455000000e+03   8.3% (56; 82)
Time used: 120.7 secs.  Memory used: 26.8 Mb.
+   673: >>>>>   3.732000000e+03 >=   3.455000000e+03   7.4% (57; 82)
+   722: >>>>>   3.711000000e+03 >=   3.467000000e+03   6.6% (35; 133)
+   740: mip =   3.711000000e+03 >=   3.474000000e+03   6.4% (38; 134)
+   745: mip =   3.711000000e+03 >=   3.474000000e+03   6.4% (42; 134)
+   762: mip =   3.711000000e+03 >=   3.474000000e+03   6.4% (47; 134)
+   783: mip =   3.711000000e+03 >=   3.484000000e+03   6.1% (46; 137)
+   790: mip =   3.711000000e+03 >=   3.487000000e+03   6.0% (51; 137)
+   803: mip =   3.711000000e+03 >=   3.490000000e+03   6.0% (53; 139)
+   823: mip =   3.711000000e+03 >=   3.495000000e+03   5.8% (49; 144)
+   840: mip =   3.711000000e+03 >=   3.498000000e+03   5.7% (44; 149)
+   869: mip =   3.711000000e+03 >=   3.503000000e+03   5.6% (43; 153)
Time used: 181.0 secs.  Memory used: 26.8 Mb.
+   879: mip =   3.711000000e+03 >=   3.515000000e+03   5.3% (43; 156)
+   895: mip =   3.711000000e+03 >=   3.515000000e+03   5.3% (49; 156)
+   916: mip =   3.711000000e+03 >=   3.515000000e+03   5.3% (55; 156)
+   942: mip =   3.711000000e+03 >=   3.515000000e+03   5.3% (58; 158)
+   966: mip =   3.711000000e+03 >=   3.515000000e+03   5.3% (62; 158)
+   988: mip =   3.711000000e+03 >=   3.519000000e+03   5.2% (64; 160)
+  1013: mip =   3.711000000e+03 >=   3.525000000e+03   5.0% (64; 163)
+  1030: mip =   3.711000000e+03 >=   3.528000000e+03   4.9% (65; 165)
+  1062: mip =   3.711000000e+03 >=   3.528000000e+03   4.9% (63; 169)
+  1071: mip =   3.711000000e+03 >=   3.528000000e+03   4.9% (62; 172)
+  1099: mip =   3.711000000e+03 >=   3.532000000e+03   4.8% (62; 174)
Time used: 241.5 secs.  Memory used: 27.2 Mb.
+  1116: mip =   3.711000000e+03 >=   3.532000000e+03   4.8% (60; 177)
+  1145: mip =   3.711000000e+03 >=   3.532000000e+03   4.8% (65; 177)
+  1153: mip =   3.711000000e+03 >=   3.532000000e+03   4.8% (70; 177)
+  1167: mip =   3.711000000e+03 >=   3.532000000e+03   4.8% (75; 177)
+  1192: mip =   3.711000000e+03 >=   3.532000000e+03   4.8% (80; 177)
+  1208: mip =   3.711000000e+03 >=   3.532000000e+03   4.8% (85; 177)
+  1230: mip =   3.711000000e+03 >=   3.536000000e+03   4.7% (86; 179)
+  1244: mip =   3.711000000e+03 >=   3.536000000e+03   4.7% (84; 183)
+  1264: mip =   3.711000000e+03 >=   3.536000000e+03   4.7% (89; 183)
+  1288: mip =   3.711000000e+03 >=   3.543000000e+03   4.5% (85; 187)
+  1308: mip =   3.711000000e+03 >=   3.545000000e+03   4.5% (88; 188)
+  1324: mip =   3.711000000e+03 >=   3.545000000e+03   4.5% (92; 188)
Time used: 302.1 secs.  Memory used: 28.0 Mb.
+  1341: mip =   3.711000000e+03 >=   3.545000000e+03   4.5% (96; 188)
+  1357: mip =   3.711000000e+03 >=   3.545000000e+03   4.5% (99; 189)
+  1367: mip =   3.711000000e+03 >=   3.545000000e+03   4.5% (105; 189)
+  1381: mip =   3.711000000e+03 >=   3.545000000e+03   4.5% (111; 189)
+  1417: mip =   3.711000000e+03 >=   3.545000000e+03   4.5% (112; 191)
+  1442: mip =   3.711000000e+03 >=   3.549000000e+03   4.4% (116; 192)
+  1448: mip =   3.711000000e+03 >=   3.549000000e+03   4.4% (113; 198)
+  1472: mip =   3.711000000e+03 >=   3.549000000e+03   4.4% (115; 200)
+  1488: mip =   3.711000000e+03 >=   3.549000000e+03   4.4% (119; 200)
+  1520: mip =   3.711000000e+03 >=   3.551000000e+03   4.3% (118; 204)
Time used: 362.8 secs.  Memory used: 28.0 Mb.
+  1546: mip =   3.711000000e+03 >=   3.551000000e+03   4.3% (123; 204)
+  1575: mip =   3.711000000e+03 >=   3.552000000e+03   4.3% (126; 205)
+  1608: mip =   3.711000000e+03 >=   3.555000000e+03   4.2% (128; 206)
+  1623: mip =   3.711000000e+03 >=   3.555000000e+03   4.2% (132; 207)
+  1647: mip =   3.711000000e+03 >=   3.555000000e+03   4.2% (137; 207)
+  1669: mip =   3.711000000e+03 >=   3.558000000e+03   4.1% (130; 215)
+  1693: mip =   3.711000000e+03 >=   3.558000000e+03   4.1% (135; 215)
+  1717: mip =   3.711000000e+03 >=   3.558000000e+03   4.1% (140; 215)
+  1724: mip =   3.711000000e+03 >=   3.558000000e+03   4.1% (143; 216)
+  1741: mip =   3.711000000e+03 >=   3.558000000e+03   4.1% (136; 224)
+  1784: mip =   3.711000000e+03 >=   3.558000000e+03   4.1% (137; 226)
Time used: 423.0 secs.  Memory used: 28.0 Mb.
+  1790: mip =   3.711000000e+03 >=   3.559000000e+03   4.1% (140; 227)
+  1794: mip =   3.711000000e+03 >=   3.559000000e+03   4.1% (144; 227)
+  1826: mip =   3.711000000e+03 >=   3.562000000e+03   4.0% (148; 227)
+  1851: mip =   3.711000000e+03 >=   3.562000000e+03   4.0% (153; 227)
+  1867: mip =   3.711000000e+03 >=   3.562000000e+03   4.0% (148; 235)
+  1887: mip =   3.711000000e+03 >=   3.562000000e+03   4.0% (153; 235)
+  1907: mip =   3.711000000e+03 >=   3.562000000e+03   4.0% (155; 237)
+  1938: mip =   3.711000000e+03 >=   3.562000000e+03   4.0% (159; 237)
+  1961: mip =   3.711000000e+03 >=   3.562000000e+03   4.0% (163; 237)
+  1989: mip =   3.711000000e+03 >=   3.564000000e+03   4.0% (164; 238)
+  2000: mip =   3.711000000e+03 >=   3.564000000e+03   4.0% (169; 238)
Time used: 483.6 secs.  Memory used: 28.2 Mb.
+  2019: mip =   3.711000000e+03 >=   3.564000000e+03   4.0% (174; 238)
+  2027: mip =   3.711000000e+03 >=   3.564000000e+03   4.0% (180; 238)
+  2060: mip =   3.711000000e+03 >=   3.564000000e+03   4.0% (177; 243)
+  2076: mip =   3.711000000e+03 >=   3.564000000e+03   4.0% (182; 243)
+  2085: mip =   3.711000000e+03 >=   3.564000000e+03   4.0% (187; 243)
+  2096: mip =   3.711000000e+03 >=   3.567000000e+03   3.9% (190; 244)
+  2104: mip =   3.711000000e+03 >=   3.568000000e+03   3.9% (194; 244)
+  2116: mip =   3.711000000e+03 >=   3.568000000e+03   3.9% (193; 247)
+  2135: mip =   3.711000000e+03 >=   3.569000000e+03   3.8% (192; 251)
+  2157: mip =   3.711000000e+03 >=   3.569000000e+03   3.8% (197; 251)
+  2175: mip =   3.711000000e+03 >=   3.571000000e+03   3.8% (197; 254)
Time used: 543.8 secs.  Memory used: 28.4 Mb.
+  2189: mip =   3.711000000e+03 >=   3.571000000e+03   3.8% (201; 254)
+  2203: mip =   3.711000000e+03 >=   3.571000000e+03   3.8% (205; 254)
+  2215: mip =   3.711000000e+03 >=   3.571000000e+03   3.8% (209; 254)
+  2238: mip =   3.711000000e+03 >=   3.571000000e+03   3.8% (214; 254)
+  2268: mip =   3.711000000e+03 >=   3.571000000e+03   3.8% (219; 254)
+  2305: mip =   3.711000000e+03 >=   3.571000000e+03   3.8% (224; 254)
+  2327: mip =   3.711000000e+03 >=   3.571000000e+03   3.8% (225; 257)
+  2339: mip =   3.711000000e+03 >=   3.571000000e+03   3.8% (230; 257)
+  2357: mip =   3.711000000e+03 >=   3.571000000e+03   3.8% (235; 257)
+  2400: mip =   3.711000000e+03 >=   3.571000000e+03   3.8% (234; 261)
Time used: 604.8 secs.  Memory used: 28.5 Mb.
+  2417: mip =   3.711000000e+03 >=   3.571000000e+03   3.8% (239; 261)
+  2433: mip =   3.711000000e+03 >=   3.571000000e+03   3.8% (244; 261)
+  2476: mip =   3.711000000e+03 >=   3.571000000e+03   3.8% (244; 263)
+  2499: mip =   3.711000000e+03 >=   3.575000000e+03   3.7% (246; 265)
+  2513: mip =   3.711000000e+03 >=   3.575000000e+03   3.7% (251; 265)
+  2534: mip =   3.711000000e+03 >=   3.575000000e+03   3.7% (257; 265)
+  2554: mip =   3.711000000e+03 >=   3.575000000e+03   3.7% (263; 265)
+  2575: mip =   3.711000000e+03 >=   3.575000000e+03   3.7% (269; 265)
+  2593: mip =   3.711000000e+03 >=   3.575000000e+03   3.7% (275; 265)
+  2604: mip =   3.711000000e+03 >=   3.575000000e+03   3.7% (281; 265)
+  2628: mip =   3.711000000e+03 >=   3.575000000e+03   3.7% (286; 265)
Time used: 665.1 secs.  Memory used: 28.6 Mb.
+  2649: mip =   3.711000000e+03 >=   3.575000000e+03   3.7% (292; 265)
+  2662: mip =   3.711000000e+03 >=   3.575000000e+03   3.7% (296; 265)
+  2674: mip =   3.711000000e+03 >=   3.576000000e+03   3.6% (296; 269)
+  2686: mip =   3.711000000e+03 >=   3.576000000e+03   3.6% (300; 269)
+  2725: mip =   3.711000000e+03 >=   3.576000000e+03   3.6% (302; 271)
+  2750: mip =   3.711000000e+03 >=   3.576000000e+03   3.6% (307; 271)
+  2763: mip =   3.711000000e+03 >=   3.576000000e+03   3.6% (312; 271)
+  2772: mip =   3.711000000e+03 >=   3.576000000e+03   3.6% (317; 271)
+  2785: mip =   3.711000000e+03 >=   3.576000000e+03   3.6% (321; 271)
+  2797: mip =   3.711000000e+03 >=   3.576000000e+03   3.6% (326; 271)
+  2814: mip =   3.711000000e+03 >=   3.576000000e+03   3.6% (330; 271)
Time used: 725.5 secs.  Memory used: 28.6 Mb.
+  2832: mip =   3.711000000e+03 >=   3.576000000e+03   3.6% (335; 271)
+  2880: mip =   3.711000000e+03 >=   3.576000000e+03   3.6% (334; 274)
+  2914: mip =   3.711000000e+03 >=   3.576000000e+03   3.6% (339; 274)
+  2936: mip =   3.711000000e+03 >=   3.576000000e+03   3.6% (344; 274)
+  2962: mip =   3.711000000e+03 >=   3.579000000e+03   3.6% (347; 275)
+  2980: mip =   3.711000000e+03 >=   3.579000000e+03   3.6% (352; 275)
+  2993: mip =   3.711000000e+03 >=   3.579000000e+03   3.6% (355; 275)
+  3014: mip =   3.711000000e+03 >=   3.579000000e+03   3.6% (350; 282)
+  3023: mip =   3.711000000e+03 >=   3.579000000e+03   3.6% (350; 285)
+  3067: mip =   3.711000000e+03 >=   3.579000000e+03   3.6% (346; 290)
+  3088: mip =   3.711000000e+03 >=   3.583000000e+03   3.4% (349; 291)
Time used: 785.6 secs.  Memory used: 29.0 Mb.
+  3116: mip =   3.711000000e+03 >=   3.583000000e+03   3.4% (354; 291)
+  3124: mip =   3.711000000e+03 >=   3.583000000e+03   3.4% (356; 293)
+  3153: mip =   3.711000000e+03 >=   3.583000000e+03   3.4% (354; 299)
+  3178: mip =   3.711000000e+03 >=   3.583000000e+03   3.4% (356; 301)
+  3199: mip =   3.711000000e+03 >=   3.585000000e+03   3.4% (346; 311)
+  3253: mip =   3.711000000e+03 >=   3.585000000e+03   3.4% (347; 313)
+  3294: mip =   3.711000000e+03 >=   3.585000000e+03   3.4% (348; 315)
+  3297: mip =   3.711000000e+03 >=   3.588000000e+03   3.3% (341; 323)
+  3329: mip =   3.711000000e+03 >=   3.588000000e+03   3.3% (336; 329)
+  3336: mip =   3.711000000e+03 >=   3.588000000e+03   3.3% (334; 331)
+  3336: mip =   3.711000000e+03 >=   3.592000000e+03   3.2% (322; 343)
Time used: 846.2 secs.  Memory used: 29.2 Mb.
+  3360: mip =   3.711000000e+03 >=   3.592000000e+03   3.2% (322; 346)
+  3366: mip =   3.711000000e+03 >=   3.592000000e+03   3.2% (327; 346)
+  3380: mip =   3.711000000e+03 >=   3.592000000e+03   3.2% (332; 346)
+  3394: mip =   3.711000000e+03 >=   3.592000000e+03   3.2% (337; 346)
+  3400: mip =   3.711000000e+03 >=   3.593000000e+03   3.2% (334; 352)
+  3418: mip =   3.711000000e+03 >=   3.593000000e+03   3.2% (339; 352)
+  3426: mip =   3.711000000e+03 >=   3.593000000e+03   3.2% (344; 352)
+  3448: mip =   3.711000000e+03 >=   3.598000000e+03   3.0% (339; 359)
+  3469: mip =   3.711000000e+03 >=   3.598000000e+03   3.0% (342; 361)
+  3474: mip =   3.711000000e+03 >=   3.598000000e+03   3.0% (347; 361)
+  3498: mip =   3.711000000e+03 >=   3.598000000e+03   3.0% (344; 367)
+  3500: >>>>>   3.706000000e+03 >=   3.598000000e+03   2.9% (344; 367)
Time used: 906.5 secs.  Memory used: 29.2 Mb.
+  3502: mip =   3.706000000e+03 >=   3.598000000e+03   2.9% (334; 381)
+  3506: mip =   3.706000000e+03 >=   3.598000000e+03   2.9% (338; 381)
+  3510: mip =   3.706000000e+03 >=   3.598000000e+03   2.9% (342; 381)
+  3514: mip =   3.706000000e+03 >=   3.598000000e+03   2.9% (346; 381)
+  3520: mip =   3.706000000e+03 >=   3.598000000e+03   2.9% (350; 381)
+  3524: mip =   3.706000000e+03 >=   3.598000000e+03   2.9% (354; 381)
+  3528: mip =   3.706000000e+03 >=   3.598000000e+03   2.9% (357; 381)
+  3532: mip =   3.706000000e+03 >=   3.598000000e+03   2.9% (361; 381)
+  3537: mip =   3.706000000e+03 >=   3.598000000e+03   2.9% (364; 381)
+  3542: mip =   3.706000000e+03 >=   3.598000000e+03   2.9% (366; 381)
+  3563: mip =   3.706000000e+03 >=   3.598000000e+03   2.9% (365; 385)
Time used: 967.3 secs.  Memory used: 29.2 Mb.
+  3571: mip =   3.706000000e+03 >=   3.598000000e+03   2.9% (366; 387)
+  3606: mip =   3.706000000e+03 >=   3.598000000e+03   2.9% (365; 390)
+  3636: mip =   3.706000000e+03 >=   3.598000000e+03   2.9% (370; 390)
+  3646: mip =   3.706000000e+03 >=   3.598000000e+03   2.9% (374; 390)
+  3650: mip =   3.706000000e+03 >=   3.598000000e+03   2.9% (378; 390)
+  3654: mip =   3.706000000e+03 >=   3.598000000e+03   2.9% (382; 390)
+  3658: mip =   3.706000000e+03 >=   3.598000000e+03   2.9% (386; 390)
+  3674: mip =   3.706000000e+03 >=   3.598000000e+03   2.9% (390; 390)
+  3691: mip =   3.706000000e+03 >=   3.600000000e+03   2.9% (392; 392)
+  3719: mip =   3.706000000e+03 >=   3.601000000e+03   2.8% (396; 392)
+  3734: mip =   3.706000000e+03 >=   3.601000000e+03   2.8% (392; 399)
Time used: 1027.4 secs.  Memory used: 29.2 Mb.
+  3749: mip =   3.706000000e+03 >=   3.601000000e+03   2.8% (397; 400)
+  3762: mip =   3.706000000e+03 >=   3.601000000e+03   2.8% (402; 400)
+  3781: mip =   3.706000000e+03 >=   3.601000000e+03   2.8% (407; 400)
+  3807: mip =   3.706000000e+03 >=   3.601000000e+03   2.8% (413; 400)
+  3820: mip =   3.706000000e+03 >=   3.601000000e+03   2.8% (418; 400)
+  3843: mip =   3.706000000e+03 >=   3.601000000e+03   2.8% (423; 400)
+  3862: mip =   3.706000000e+03 >=   3.601000000e+03   2.8% (428; 400)
+  3873: mip =   3.706000000e+03 >=   3.601000000e+03   2.8% (434; 400)
+  3886: mip =   3.706000000e+03 >=   3.601000000e+03   2.8% (439; 400)
+  3899: mip =   3.706000000e+03 >=   3.601000000e+03   2.8% (444; 400)
+  3914: mip =   3.706000000e+03 >=   3.601000000e+03   2.8% (449; 400)
Time used: 1088.5 secs.  Memory used: 29.2 Mb.
+  3946: mip =   3.706000000e+03 >=   3.601000000e+03   2.8% (447; 405)
+  3969: mip =   3.706000000e+03 >=   3.601000000e+03   2.8% (450; 406)
+  4000: mip =   3.706000000e+03 >=   3.601000000e+03   2.8% (450; 408)
+  4007: mip =   3.706000000e+03 >=   3.603000000e+03   2.8% (450; 411)
+  4016: mip =   3.706000000e+03 >=   3.603000000e+03   2.8% (456; 411)
+  4025: mip =   3.706000000e+03 >=   3.603000000e+03   2.8% (463; 411)
+  4040: mip =   3.706000000e+03 >=   3.603000000e+03   2.8% (468; 413)
+  4058: mip =   3.706000000e+03 >=   3.603000000e+03   2.8% (471; 415)
+  4072: mip =   3.706000000e+03 >=   3.603000000e+03   2.8% (469; 420)
+  4078: mip =   3.706000000e+03 >=   3.603000000e+03   2.8% (473; 420)
+  4099: mip =   3.706000000e+03 >=   3.603000000e+03   2.8% (477; 420)
+  4152: mip =   3.706000000e+03 >=   3.603000000e+03   2.8% (481; 420)
Time used: 1149.2 secs.  Memory used: 29.3 Mb.
+  4223: mip =   3.706000000e+03 >=   3.607000000e+03   2.7% (481; 423)
+  4244: >>>>>   3.693000000e+03 >=   3.607000000e+03   2.3% (484; 424)
+  4249: mip =   3.693000000e+03 >=   3.607000000e+03   2.3% (467; 445)
+  4278: mip =   3.693000000e+03 >=   3.607000000e+03   2.3% (472; 445)
+  4300: mip =   3.693000000e+03 >=   3.607000000e+03   2.3% (477; 445)
+  4319: mip =   3.693000000e+03 >=   3.607000000e+03   2.3% (481; 446)
+  4333: mip =   3.693000000e+03 >=   3.607000000e+03   2.3% (486; 446)
+  4357: mip =   3.693000000e+03 >=   3.607000000e+03   2.3% (491; 446)
+  4362: mip =   3.693000000e+03 >=   3.607000000e+03   2.3% (496; 446)
+  4371: mip =   3.693000000e+03 >=   3.607000000e+03   2.3% (501; 446)
+  4377: mip =   3.693000000e+03 >=   3.607000000e+03   2.3% (489; 458)
Time used: 1209.6 secs.  Memory used: 29.3 Mb.
+  4393: mip =   3.693000000e+03 >=   3.608000000e+03   2.3% (484; 464)
+  4442: mip =   3.693000000e+03 >=   3.608000000e+03   2.3% (480; 468)
+  4483: mip =   3.693000000e+03 >=   3.612000000e+03   2.2% (479; 471)
+  4490: mip =   3.693000000e+03 >=   3.612000000e+03   2.2% (464; 486)
+  4497: mip =   3.693000000e+03 >=   3.612000000e+03   2.2% (464; 489)
+  4518: mip =   3.693000000e+03 >=   3.612000000e+03   2.2% (468; 489)
+  4534: mip =   3.693000000e+03 >=   3.614000000e+03   2.1% (464; 495)
+  4536: mip =   3.693000000e+03 >=   3.614000000e+03   2.1% (456; 505)
+  4555: mip =   3.693000000e+03 >=   3.614000000e+03   2.1% (461; 505)
+  4574: mip =   3.693000000e+03 >=   3.614000000e+03   2.1% (456; 512)
+  4621: mip =   3.693000000e+03 >=   3.618000000e+03   2.0% (458; 513)
Time used: 1269.7 secs.  Memory used: 29.3 Mb.
+  4646: mip =   3.693000000e+03 >=   3.618000000e+03   2.0% (459; 516)
+  4650: mip =   3.693000000e+03 >=   3.618000000e+03   2.0% (446; 529)
+  4660: mip =   3.693000000e+03 >=   3.618000000e+03   2.0% (446; 532)
+  4667: mip =   3.693000000e+03 >=   3.618000000e+03   2.0% (439; 540)
+  4685: mip =   3.693000000e+03 >=   3.618000000e+03   2.0% (433; 547)
+  4719: mip =   3.693000000e+03 >=   3.618000000e+03   2.0% (435; 547)
+  4732: mip =   3.693000000e+03 >=   3.620000000e+03   2.0% (438; 548)
+  4748: mip =   3.693000000e+03 >=   3.622000000e+03   1.9% (442; 548)
+  4757: mip =   3.693000000e+03 >=   3.622000000e+03   1.9% (446; 548)
+  4779: mip =   3.693000000e+03 >=   3.622000000e+03   1.9% (448; 549)
+  4790: mip =   3.693000000e+03 >=   3.622000000e+03   1.9% (444; 557)
Time used: 1329.9 secs.  Memory used: 29.3 Mb.
+  4797: mip =   3.693000000e+03 >=   3.622000000e+03   1.9% (449; 557)
+  4804: mip =   3.693000000e+03 >=   3.622000000e+03   1.9% (454; 557)
+  4816: mip =   3.693000000e+03 >=   3.622000000e+03   1.9% (450; 564)
+  4824: mip =   3.693000000e+03 >=   3.622000000e+03   1.9% (455; 564)
+  4847: mip =   3.693000000e+03 >=   3.622000000e+03   1.9% (460; 564)
+  4857: mip =   3.693000000e+03 >=   3.622000000e+03   1.9% (463; 566)
+  4873: mip =   3.693000000e+03 >=   3.622000000e+03   1.9% (468; 566)
+  4894: mip =   3.693000000e+03 >=   3.622000000e+03   1.9% (474; 566)
+  4908: mip =   3.693000000e+03 >=   3.622000000e+03   1.9% (477; 566)
+  4921: mip =   3.693000000e+03 >=   3.622000000e+03   1.9% (481; 566)
+  4942: mip =   3.693000000e+03 >=   3.622000000e+03   1.9% (472; 575)
Time used: 1390.5 secs.  Memory used: 29.3 Mb.
+  4953: mip =   3.693000000e+03 >=   3.622000000e+03   1.9% (472; 576)
+  4963: mip =   3.693000000e+03 >=   3.622000000e+03   1.9% (473; 578)
+  4970: mip =   3.693000000e+03 >=   3.622000000e+03   1.9% (478; 578)
+  4987: mip =   3.693000000e+03 >=   3.623000000e+03   1.9% (480; 580)
+  4998: mip =   3.693000000e+03 >=   3.623000000e+03   1.9% (472; 588)
+  5036: mip =   3.693000000e+03 >=   3.623000000e+03   1.9% (474; 590)
+  5059: mip =   3.693000000e+03 >=   3.623000000e+03   1.9% (478; 590)
+  5071: mip =   3.693000000e+03 >=   3.623000000e+03   1.9% (482; 590)
+  5086: mip =   3.693000000e+03 >=   3.625000000e+03   1.8% (482; 592)
+  5096: mip =   3.693000000e+03 >=   3.625000000e+03   1.8% (483; 593)
+  5114: mip =   3.693000000e+03 >=   3.625000000e+03   1.8% (476; 600)
Time used: 1450.8 secs.  Memory used: 29.3 Mb.
+  5137: mip =   3.693000000e+03 >=   3.625000000e+03   1.8% (469; 607)
+  5152: mip =   3.693000000e+03 >=   3.626000000e+03   1.8% (470; 609)
+  5172: mip =   3.693000000e+03 >=   3.626000000e+03   1.8% (469; 611)
+  5184: mip =   3.693000000e+03 >=   3.626000000e+03   1.8% (473; 611)
+  5203: mip =   3.693000000e+03 >=   3.626000000e+03   1.8% (474; 611)
+  5215: mip =   3.693000000e+03 >=   3.626000000e+03   1.8% (473; 616)
+  5224: mip =   3.693000000e+03 >=   3.626000000e+03   1.8% (467; 623)
+  5237: mip =   3.693000000e+03 >=   3.626000000e+03   1.8% (461; 629)
+  5244: mip =   3.693000000e+03 >=   3.626000000e+03   1.8% (462; 631)
+  5261: mip =   3.693000000e+03 >=   3.626000000e+03   1.8% (466; 631)
+  5290: mip =   3.693000000e+03 >=   3.626000000e+03   1.8% (470; 631)
Time used: 1510.8 secs.  Memory used: 29.3 Mb.
+  5309: mip =   3.693000000e+03 >=   3.626000000e+03   1.8% (474; 631)
+  5360: mip =   3.693000000e+03 >=   3.630000000e+03   1.7% (471; 635)
+  5366: mip =   3.693000000e+03 >=   3.630000000e+03   1.7% (461; 647)
+  5375: mip =   3.693000000e+03 >=   3.630000000e+03   1.7% (456; 654)
+  5388: mip =   3.693000000e+03 >=   3.630000000e+03   1.7% (458; 656)
+  5405: mip =   3.693000000e+03 >=   3.630000000e+03   1.7% (463; 656)
+  5424: mip =   3.693000000e+03 >=   3.630000000e+03   1.7% (466; 657)
+  5434: mip =   3.693000000e+03 >=   3.630000000e+03   1.7% (458; 665)
+  5451: mip =   3.693000000e+03 >=   3.630000000e+03   1.7% (455; 670)
+  5481: mip =   3.693000000e+03 >=   3.630000000e+03   1.7% (460; 670)
+  5492: mip =   3.693000000e+03 >=   3.630000000e+03   1.7% (464; 670)
Time used: 1571.8 secs.  Memory used: 29.3 Mb.
+  5497: mip =   3.693000000e+03 >=   3.630000000e+03   1.7% (468; 670)
+  5515: mip =   3.693000000e+03 >=   3.630000000e+03   1.7% (473; 670)
+  5553: mip =   3.693000000e+03 >=   3.630000000e+03   1.7% (476; 671)
+  5569: mip =   3.693000000e+03 >=   3.630000000e+03   1.7% (481; 671)
+  5594: mip =   3.693000000e+03 >=   3.630000000e+03   1.7% (479; 675)
+  5621: mip =   3.693000000e+03 >=   3.632000000e+03   1.7% (474; 682)
+  5632: mip =   3.693000000e+03 >=   3.632000000e+03   1.7% (473; 686)
+  5660: mip =   3.693000000e+03 >=   3.632000000e+03   1.7% (479; 686)
+  5688: mip =   3.693000000e+03 >=   3.632000000e+03   1.7% (480; 687)
+  5708: mip =   3.693000000e+03 >=   3.632000000e+03   1.7% (472; 695)
+  5754: mip =   3.693000000e+03 >=   3.634000000e+03   1.6% (462; 705)
Time used: 1632.0 secs.  Memory used: 29.3 Mb.
+  5754: mip =   3.693000000e+03 >=   3.634000000e+03   1.6% (449; 718)
+  5788: mip =   3.693000000e+03 >=   3.634000000e+03   1.6% (449; 721)
+  5814: mip =   3.693000000e+03 >=   3.634000000e+03   1.6% (449; 723)
+  5832: mip =   3.693000000e+03 >=   3.635000000e+03   1.6% (441; 732)
+  5850: mip =   3.693000000e+03 >=   3.635000000e+03   1.6% (443; 732)
+  5864: mip =   3.693000000e+03 >=   3.635000000e+03   1.6% (440; 737)
+  5882: mip =   3.693000000e+03 >=   3.636000000e+03   1.5% (438; 742)
+  5898: mip =   3.693000000e+03 >=   3.636000000e+03   1.5% (443; 742)
+  5908: mip =   3.693000000e+03 >=   3.636000000e+03   1.5% (447; 743)
+  5922: mip =   3.693000000e+03 >=   3.636000000e+03   1.5% (440; 751)
Time used: 1692.9 secs.  Memory used: 29.3 Mb.
+  5930: mip =   3.693000000e+03 >=   3.636000000e+03   1.5% (444; 751)
+  5937: mip =   3.693000000e+03 >=   3.636000000e+03   1.5% (447; 752)
+  5957: mip =   3.693000000e+03 >=   3.636000000e+03   1.5% (450; 752)
+  5993: mip =   3.693000000e+03 >=   3.636000000e+03   1.5% (454; 752)
+  6005: mip =   3.693000000e+03 >=   3.636000000e+03   1.5% (458; 752)
+  6040: mip =   3.693000000e+03 >=   3.636000000e+03   1.5% (462; 752)
+  6077: mip =   3.693000000e+03 >=   3.640000000e+03   1.4% (454; 765)
+  6106: mip =   3.693000000e+03 >=   3.640000000e+03   1.4% (459; 765)
+  6117: mip =   3.693000000e+03 >=   3.640000000e+03   1.4% (456; 771)
+  6131: mip =   3.693000000e+03 >=   3.640000000e+03   1.4% (461; 771)
+  6136: mip =   3.693000000e+03 >=   3.640000000e+03   1.4% (456; 778)
Time used: 1753.3 secs.  Memory used: 29.3 Mb.
+  6151: mip =   3.693000000e+03 >=   3.640000000e+03   1.4% (459; 779)
+  6157: mip =   3.693000000e+03 >=   3.640000000e+03   1.4% (452; 787)
+  6171: mip =   3.693000000e+03 >=   3.640000000e+03   1.4% (457; 787)
+  6184: mip =   3.693000000e+03 >=   3.640000000e+03   1.4% (460; 787)
+  6216: mip =   3.693000000e+03 >=   3.640000000e+03   1.4% (455; 792)
+  6236: mip =   3.693000000e+03 >=   3.640000000e+03   1.4% (456; 794)
+  6260: mip =   3.693000000e+03 >=   3.640000000e+03   1.4% (460; 794)
+  6274: mip =   3.693000000e+03 >=   3.640000000e+03   1.4% (462; 795)
+  6292: mip =   3.693000000e+03 >=   3.644000000e+03   1.3% (461; 799)
+  6293: mip =   3.693000000e+03 >=   3.644000000e+03   1.3% (447; 814)
+  6305: mip =   3.693000000e+03 >=   3.644000000e+03   1.3% (451; 814)
Time used: 1814.1 secs.  Memory used: 29.3 Mb.
+  6322: mip =   3.693000000e+03 >=   3.644000000e+03   1.3% (456; 814)
+  6339: mip =   3.693000000e+03 >=   3.644000000e+03   1.3% (461; 814)
+  6348: mip =   3.693000000e+03 >=   3.644000000e+03   1.3% (466; 814)
+  6367: mip =   3.693000000e+03 >=   3.644000000e+03   1.3% (470; 814)
+  6383: mip =   3.693000000e+03 >=   3.644000000e+03   1.3% (471; 814)
+  6409: mip =   3.693000000e+03 >=   3.644000000e+03   1.3% (467; 819)
+  6421: mip =   3.693000000e+03 >=   3.644000000e+03   1.3% (466; 823)
+  6429: mip =   3.693000000e+03 >=   3.644000000e+03   1.3% (469; 823)
+  6433: mip =   3.693000000e+03 >=   3.644000000e+03   1.3% (461; 832)
+  6462: mip =   3.693000000e+03 >=   3.644000000e+03   1.3% (459; 837)
+  6481: mip =   3.693000000e+03 >=   3.644000000e+03   1.3% (464; 837)
Time used: 1874.3 secs.  Memory used: 29.3 Mb.
+  6503: mip =   3.693000000e+03 >=   3.644000000e+03   1.3% (462; 841)
+  6528: mip =   3.693000000e+03 >=   3.644000000e+03   1.3% (462; 844)
+  6544: mip =   3.693000000e+03 >=   3.644000000e+03   1.3% (466; 844)
+  6563: mip =   3.693000000e+03 >=   3.644000000e+03   1.3% (470; 844)
+  6583: mip =   3.693000000e+03 >=   3.644000000e+03   1.3% (474; 844)
+  6610: mip =   3.693000000e+03 >=   3.646000000e+03   1.3% (466; 853)
+  6610: mip =   3.693000000e+03 >=   3.646000000e+03   1.3% (451; 868)
+  6630: mip =   3.693000000e+03 >=   3.646000000e+03   1.3% (455; 869)
+  6646: mip =   3.693000000e+03 >=   3.646000000e+03   1.3% (455; 872)
+  6656: mip =   3.693000000e+03 >=   3.646000000e+03   1.3% (458; 873)
+  6670: mip =   3.693000000e+03 >=   3.646000000e+03   1.3% (463; 873)
Time used: 1934.4 secs.  Memory used: 29.3 Mb.
+  6706: mip =   3.693000000e+03 >=   3.646000000e+03   1.3% (461; 877)
+  6731: mip =   3.693000000e+03 >=   3.650000000e+03   1.2% (449; 892)
+  6731: mip =   3.693000000e+03 >=   3.650000000e+03   1.2% (431; 910)
+  6737: mip =   3.693000000e+03 >=   3.650000000e+03   1.2% (425; 920)
+  6749: mip =   3.693000000e+03 >=   3.650000000e+03   1.2% (430; 920)
+  6778: mip =   3.693000000e+03 >=   3.650000000e+03   1.2% (431; 923)
+  6795: mip =   3.693000000e+03 >=   3.650000000e+03   1.2% (432; 926)
+  6807: mip =   3.693000000e+03 >=   3.650000000e+03   1.2% (437; 926)
+  6823: mip =   3.693000000e+03 >=   3.650000000e+03   1.2% (442; 926)
+  6840: mip =   3.693000000e+03 >=   3.650000000e+03   1.2% (441; 931)
+  6856: mip =   3.693000000e+03 >=   3.650000000e+03   1.2% (446; 931)
+  6885: mip =   3.693000000e+03 >=   3.650000000e+03   1.2% (446; 934)
Time used: 1995.0 secs.  Memory used: 29.3 Mb.
+  6895: mip =   3.693000000e+03 >=   3.650000000e+03   1.2% (435; 945)
+  6915: mip =   3.693000000e+03 >=   3.650000000e+03   1.2% (430; 951)
+  6924: mip =   3.693000000e+03 >=   3.650000000e+03   1.2% (426; 957)
+  6949: mip =   3.693000000e+03 >=   3.650000000e+03   1.2% (429; 958)
+  6949: mip =   3.693000000e+03 >=   3.651000000e+03   1.1% (414; 973)
+  6958: mip =   3.693000000e+03 >=   3.651000000e+03   1.1% (413; 977)
+  6993: mip =   3.693000000e+03 >=   3.651000000e+03   1.1% (418; 977)
+  7012: mip =   3.693000000e+03 >=   3.651000000e+03   1.1% (420; 979)
+  7015: mip =   3.693000000e+03 >=   3.655000000e+03   1.0% (407; 993)
+  7027: mip =   3.693000000e+03 >=   3.655000000e+03   1.0% (408; 996)
+  7041: mip =   3.693000000e+03 >=   3.655000000e+03   1.0% (412; 996)
Time used: 2055.7 secs.  Memory used: 29.3 Mb.
+  7053: mip =   3.693000000e+03 >=   3.655000000e+03   1.0% (410; 1001)
+  7071: mip =   3.693000000e+03 >=   3.655000000e+03   1.0% (413; 1001)
+  7096: mip =   3.693000000e+03 >=   3.655000000e+03   1.0% (403; 1011)
+  7103: mip =   3.693000000e+03 >=   3.655000000e+03   1.0% (392; 1022)
+  7115: mip =   3.693000000e+03 >=   3.655000000e+03   1.0% (386; 1029)
+  7132: mip =   3.693000000e+03 >=   3.655000000e+03   1.0% (389; 1030)
+  7137: mip =   3.693000000e+03 >=   3.657000000e+03   1.0% (376; 1043)
+  7146: mip =   3.693000000e+03 >=   3.657000000e+03   1.0% (379; 1045)
+  7156: mip =   3.693000000e+03 >=   3.657000000e+03   1.0% (384; 1045)
+  7168: mip =   3.693000000e+03 >=   3.657000000e+03   1.0% (377; 1052)
+  7173: mip =   3.693000000e+03 >=   3.657000000e+03   1.0% (369; 1062)
Time used: 2116.3 secs.  Memory used: 29.3 Mb.
+  7181: mip =   3.693000000e+03 >=   3.657000000e+03   1.0% (360; 1072)
+  7214: mip =   3.693000000e+03 >=   3.657000000e+03   1.0% (363; 1073)
+  7233: mip =   3.693000000e+03 >=   3.657000000e+03   1.0% (368; 1073)
+  7248: mip =   3.693000000e+03 >=   3.657000000e+03   1.0% (371; 1074)
+  7269: mip =   3.693000000e+03 >=   3.657000000e+03   1.0% (369; 1079)
+  7272: >>>>>   3.682000000e+03 >=   3.661000000e+03   0.6% (364; 1084)
+  7288: mip =   3.682000000e+03 >=   3.661000000e+03   0.6% (275; 1237)
+  7302: mip =   3.682000000e+03 >=   3.661000000e+03   0.6% (274; 1242)
+  7324: mip =   3.682000000e+03 >=   3.661000000e+03   0.6% (275; 1245)
+  7339: mip =   3.682000000e+03 >=   3.661000000e+03   0.6% (270; 1250)
+  7357: mip =   3.682000000e+03 >=   3.661000000e+03   0.6% (271; 1252)
Time used: 2177.1 secs.  Memory used: 29.3 Mb.
+  7378: mip =   3.682000000e+03 >=   3.661000000e+03   0.6% (259; 1264)
+  7384: mip =   3.682000000e+03 >=   3.661000000e+03   0.6% (250; 1274)
+  7390: mip =   3.682000000e+03 >=   3.661000000e+03   0.6% (252; 1276)
+  7401: mip =   3.682000000e+03 >=   3.661000000e+03   0.6% (256; 1276)
+  7408: mip =   3.682000000e+03 >=   3.663000000e+03   0.5% (244; 1292)
+  7416: mip =   3.682000000e+03 >=   3.663000000e+03   0.5% (241; 1302)
+  7423: mip =   3.682000000e+03 >=   3.663000000e+03   0.5% (239; 1306)
+  7435: mip =   3.682000000e+03 >=   3.663000000e+03   0.5% (229; 1325)
+  7448: mip =   3.682000000e+03 >=   3.663000000e+03   0.5% (216; 1359)
+  7448: mip =   3.682000000e+03 >=   3.667000000e+03   0.4% (195; 1396)
+  7451: mip =   3.682000000e+03 >=   3.667000000e+03   0.4% (181; 1411)
Time used: 2237.2 secs.  Memory used: 29.3 Mb.
+  7460: mip =   3.682000000e+03 >=   3.667000000e+03   0.4% (169; 1433)
+  7473: mip =   3.682000000e+03 >=   3.667000000e+03   0.4% (160; 1457)
+  7479: mip =   3.682000000e+03 >=   3.667000000e+03   0.4% (150; 1499)
+  7492: mip =   3.682000000e+03 >=   3.667000000e+03   0.4% (143; 1506)
+  7526: mip =   3.682000000e+03 >=   3.671000000e+03   0.3% (140; 1510)
+  7547: mip =   3.682000000e+03 >=   3.671000000e+03   0.3% (127; 1532)
+  7547: mip =   3.682000000e+03 >=   3.671000000e+03   0.3% (108; 1562)
+  7548: mip =   3.682000000e+03 >=   3.671000000e+03   0.3% (93; 1589)
+  7559: mip =   3.682000000e+03 >=   3.671000000e+03   0.3% (85; 1599)
+  7571: mip =   3.682000000e+03 >=   3.675000000e+03   0.2% (73; 1628)
+  7577: mip =   3.682000000e+03 >=   3.675000000e+03   0.2% (47; 1899)
+  7577: mip =   3.682000000e+03 >=   3.679000000e+03 < 0.1% (25; 2063)
Time used: 2297.2 secs.  Memory used: 29.3 Mb.
+  7582: mip =   3.682000000e+03 >=     tree is empty   0.0% (0; 2805)
INTEGER OPTIMAL SOLUTION FOUND
coût total = 3682.000000
Les tournées suivantes sont choisies :
9, 12, 16, 19, 
Pour un coût de 520
8, 18, 5, 
Pour un coût de 418
17, 10, 14, 3, 11, 
Pour un coût de 1210
7, 6, 1, 13, 2, 15, 4, 
Pour un coût de 1534
Temps : 736.957000
